benchmarks_vrp/CMT1/fixed_c/CMT1_0.vrp
NAME: CMT1_0
TYPE: CVRP
COMMENT: 524.61 - Cluster Nr.0
DIMENSION: 5
CAPACITY: 160
EDGE_WEIGHT_TYPE: EUC_2D
NODE_COORD_TYPE: TWOD_COORDS
NODE_COORD_SECTION: 
3 5 6
4 10 17
5 13 13
2 5 25
1 30 40
DEPOT_SECTION: 
1
-1
DEMAND_SECTION: 
2 23
1 0
3 7
5 9
4 27
EOF
