benchmarks_vrp/CMT1/fixed_c/CMT1_0.tour
NAME: CMT1_0 solution
TYPE: TOUR
TOUR_SECTION:
1 2 4 3 5 -1
-1
EOF